tileCount = 126;
length1 = 14;
width = 9;
tileCountWRotation = 26;
numOfTypes = 4;
TilesCardinality = [5, 4, 13, 10, 14, 7, 4, 4, 7, 3, 4, 6, 4, 2, 1, 1, 1, 3, 7, 9, 4, 1, 2, 7, 2, 1];
TypeOfTiles	= [|F, P, T, P
|P, F, F, F
|P, F, F, P
|F, F, T, F
|F, T, T, F
|F, T, T, T
|P, F, T, P
|P, P, T, F
|P, P, F, P
|P, P, T, P
|P, T, T, T
|P, P, T, T
|F, F, F, R
|R, R, P, P
|R, R, T, T
|R, P, R, T
|R, F, R, P
|F, F, R, R
|F, T, F, T
|P, F, P, F
|R, F, R, F
|R, P, R, P
|R, T, R, T
|F, F, F, F
|T, T, T, T
|P, P, P, P|];
